
Gurobi 10.0.1 (win64) logging started Sun Aug 27 11:21:54 2023

Set parameter LogFile to value "results//log/Fattahi_setup_11_modified_makespan.log"
Gurobi Optimizer version 10.0.1 build v10.0.1rc0 (win64)

CPU model: AMD Ryzen 7 3700X 8-Core Processor, instruction set [SSE2|AVX|AVX2]
Thread count: 8 physical cores, 16 logical processors, using up to 16 threads

Optimize a model with 268 rows, 292 columns and 1064 nonzeros
Model fingerprint: 0x22cbac21
Variable types: 33 continuous, 259 integer (258 binary)
Coefficient statistics:
  Matrix range     [1e+00, 1e+06]
  Objective range  [1e+00, 1e+00]
  Bounds range     [1e+00, 1e+00]
  RHS range        [1e+00, 3e+06]
Presolve removed 45 rows and 173 columns
Presolve time: 0.00s
Presolved: 223 rows, 119 columns, 983 nonzeros
Variable types: 33 continuous, 86 integer (85 binary)
Found heuristic solution: objective 9898.0000000
Found heuristic solution: objective 8881.0000000
Found heuristic solution: objective 7740.0000000

Root relaxation: objective 4.008000e+03, 58 iterations, 0.00 seconds (0.00 work units)

    Nodes    |    Current Node    |     Objective Bounds      |     Work
 Expl Unexpl |  Obj  Depth IntInf | Incumbent    BestBd   Gap | It/Node Time

     0     0 4008.00000    0   23 7740.00000 4008.00000  48.2%     -    0s
H    0     0                    6655.0000000 4008.00000  39.8%     -    0s
H    0     0                    6276.0000000 4008.00000  36.1%     -    0s
     0     0 4018.00000    0   29 6276.00000 4018.00000  36.0%     -    0s
H    0     0                    6254.0000000 4018.00000  35.8%     -    0s
     0     0 4018.00000    0   26 6254.00000 4018.00000  35.8%     -    0s
     0     0 4018.00000    0   26 6254.00000 4018.00000  35.8%     -    0s
     0     0 4058.59112    0   18 6254.00000 4058.59112  35.1%     -    0s
     0     0 4062.27122    0   17 6254.00000 4062.27122  35.0%     -    0s
     0     0 4062.27122    0   20 6254.00000 4062.27122  35.0%     -    0s
     0     0 4062.27122    0   20 6254.00000 4062.27122  35.0%     -    0s
     0     0 4062.27122    0   17 6254.00000 4062.27122  35.0%     -    0s
     0     0 4062.27122    0   18 6254.00000 4062.27122  35.0%     -    0s
     0     0 4062.27122    0   18 6254.00000 4062.27122  35.0%     -    0s
     0     0 4062.27122    0   19 6254.00000 4062.27122  35.0%     -    0s
H    0     0                    6245.0000000 4062.27122  35.0%     -    0s
     0     0 4062.27122    0   18 6245.00000 4062.27122  35.0%     -    0s
     0     0 4062.27122    0   13 6245.00000 4062.27122  35.0%     -    0s
     0     0 4062.29519    0   19 6245.00000 4062.29519  35.0%     -    0s
     0     0 4062.29519    0   21 6245.00000 4062.29519  35.0%     -    0s
H    0     0                    6217.0000000 4062.29519  34.7%     -    0s
     0     0 4062.29519    0   14 6217.00000 4062.29519  34.7%     -    0s
     0     0 4064.64135    0   14 6217.00000 4064.64135  34.6%     -    0s
H    0     0                    6116.0000000 4064.64135  33.5%     -    0s
     0     0 4067.00000    0   19 6116.00000 4067.00000  33.5%     -    0s
     0     0 4081.00000    0   14 6116.00000 4081.00000  33.3%     -    0s
     0     0 4091.80170    0   20 6116.00000 4091.80170  33.1%     -    0s
     0     0 4099.00000    0   18 6116.00000 4099.00000  33.0%     -    0s
     0     0 4099.00000    0   17 6116.00000 4099.00000  33.0%     -    0s
     0     2 4099.00000    0   17 6116.00000 4099.00000  33.0%     -    0s
H   28    19                    6115.0000000 4099.00000  33.0%  18.5    0s
H   32    19                    6033.0000000 4099.00000  32.1%  17.0    0s
H  180   107                    6032.0000000 4099.00000  32.0%  10.9    0s
H  185   107                    5858.0000000 4099.00000  30.0%  10.9    0s
H 2961  1046                    5786.0000000 4171.69910  27.9%   5.5    0s
H 2962   995                    5784.0000000 4171.69910  27.9%   5.5    0s
H 2963   945                    5767.0000000 4171.69910  27.7%   5.5    0s
H 2963   897                    5671.0000000 4171.69910  26.4%   5.5    0s
H 2965   854                    5648.0000000 4171.69910  26.1%   5.5    0s
H 3026   846                    5646.0000000 4171.69910  26.1%   1.1    0s
H 3060   835                    5620.0000000 4171.69910  25.8%   1.2    0s
H 3187   832                    5602.0000000 4171.69910  25.5%   1.5    0s

Cutting planes:
  Gomory: 7
  MIR: 1
  StrongCG: 1
  Flow cover: 5

Explored 19703 nodes (131632 simplex iterations) in 1.29 seconds (0.72 work units)
Thread count was 16 (of 16 available processors)

Solution count 10: 5602 5602 5620 ... 5858

Optimal solution found (tolerance 1.00e-04)
Best objective 5.602000000000e+03, best bound 5.602000000000e+03, gap 0.0000%
Warning: constraint name "precedence between 0,1 to 0,0 if x_[j,l,h,z,i]=1" has a space
Warning: constraint name "precedence between 0,1 to 0,0 if x_[j,l,h,z,i]=1" has a space
Warning: default constraint names used to write mps file
